p cnf 20 20
-11 -7 -13 0
14 -13 -20 0
-9 4 -18 0
8 1 -10 0
19 16 3 0
-20 -17 11 0
-18 7 -4 0
-18 6 8 0
9 -14 10 0
2 6 -11 0
19 -1 -14 0
6 19 3 0
-3 13 -16 0
8 -17 -12 0
-20 11 -6 0
-6 -10 8 0
-20 -1 -16 0
-9 7 8 0
-19 14 -1 0
-5 -3 -18 0
